Gurobi 12.0.3:   lim:time = 14400

  mip:bestbound = 1

Set parameter LogToConsole to value 1

  tech:outlev = 1

Set parameter Cuts to value 3

  cut:cuts = 3

Set parameter Presolve to value 2

  pre:solve = 2

Set parameter MIPFocus to value 2

  mip:focus = 2

Set parameter Symmetry to value 2

  mip:symmetry = 2

Set parameter InfUnbdInfo to value 1

Gurobi Optimizer version 12.0.3 build v12.0.3rc0 (win64 - Windows 11+.0 (26200.2))



CPU model: 13th Gen Intel(R) Core(TM) i7-13700K, instruction set [SSE2|AVX|AVX2]

Thread count: 16 physical cores, 24 logical processors, using up to 24 threads



Non-default parameters:

TimeLimit  14400

MIPFocus  2

Symmetry  2

Cuts  3

InfUnbdInfo  1

Presolve  2



Optimize a model with 323 rows, 608 columns and 3383 nonzeros

Model fingerprint: 0x511b4451

Model has 3 quadratic constraints

Variable types: 35 continuous, 573 integer (0 binary)

Coefficient statistics:

  Matrix range     [1e+00, 1e+05]

  QMatrix range    [1e+00, 1e+00]

  QLMatrix range   [1e+01, 1e+01]

  Objective range  [4e+00, 1e+02]

  Bounds range     [1e+00, 1e+02]

  RHS range        [1e+00, 1e+05]

  QRHS range       [1e+02, 1e+02]

Presolve removed 30 rows and 66 columns

Presolve time: 0.04s

Presolved: 650 rows, 896 columns, 5261 nonzeros

Variable types: 12 continuous, 884 integer (696 binary)

Root relaxation presolve removed 16 rows and 0 columns

Root relaxation presolved: 457 rows, 720 columns, 5923 nonzeros





Root relaxation: objective 5.152410e+01, 123 iterations, 0.01 seconds (0.01 work units)



    Nodes    |    Current Node    |     Objective Bounds      |     Work

 Expl Unexpl |  Obj  Depth IntInf | Incumbent    BestBd   Gap | It/Node Time



     0     0   51.52410    0   38          -   51.52410      -     -    0s

H    0     0                     464.9600000   51.52410  88.9%     -    0s

H    0     0                     464.1900000   51.52410  88.9%     -    0s

H    0     0                     451.7700000   66.68780  85.2%     -    0s

     0     0   73.62000    0   28  451.77000   73.62000  83.7%     -    0s

     0     0   73.62000    0   25  451.77000   73.62000  83.7%     -    0s

     0     0   73.62000    0   25  451.77000   73.62000  83.7%     -    0s

H    0     0                     248.3900000   73.62000  70.4%     -    0s

H    0     0                     237.5000000   73.77000  68.9%     -    0s

     0     0   73.77000    0   30  237.50000   73.77000  68.9%     -    0s

     0     0   74.02788    0   27  237.50000   74.02788  68.8%     -    0s

     0     2   74.02788    0   27  237.50000   74.02788  68.8%     -    0s

H   29    39                     235.9100000   74.02788  68.6%  21.2    0s

H   31    39                     205.5200000   74.02788  64.0%  20.4    0s

H   39    37                     202.4300000   74.02788  63.4%  19.6    0s



Cutting planes:

  Learned: 20

  Gomory: 8

  Lift-and-project: 21

  Cover: 4

  Implied bound: 34

  Projected implied bound: 9

  Clique: 3

  MIR: 38

  StrongCG: 81

  Flow cover: 138

  Inf proof: 1

  Zero half: 31

  RLT: 94

  Relax-and-lift: 20



Explored 2640 nodes (34965 simplex iterations) in 0.86 seconds (0.74 work units)

Thread count was 24 (of 24 available processors)



Solution count 8: 202.43 205.52 235.91 ... 464.96



Optimal solution found (tolerance 1.00e-04)

Best objective 2.024300000000e+02, best bound 2.024300000000e+02, gap 0.0000%



AMPL MP initial flat model has 608 variables (0 integer, 573 binary);

Objectives: 1 linear; 

Constraints:  323 linear; 3 quadratic;



AMPL MP final model has 608 variables (0 integer, 573 binary);

Objectives: 1 linear; 

Constraints:  323 linear; 3 quadratic;





-----RESULTS INFO-----
running_time:  1.875
TC.best_bound:  202.43
TC:  202.43
MIP Gap (%):  0
=== Vehicle Routes ===
Vehicle 1: 0 → 1
Vehicle 1: 1 → 2
Vehicle 1: 2 → 9
Vehicle 1: 6 → 16
Vehicle 1: 9 → 14
Vehicle 1: 14 → 6
Vehicle 2: 0 → 16
Vehicle 3: 0 → 16

=== Full Vehicle Routes ===
Vehicle 1: 0 → 1 → 2 → 9 → 14 → 6 → 0 (94<100)
Vehicle 2: 0 → 0 (0<100)
Vehicle 3: 0 → 0 (0<100)
Arc used by MRT line: y variables:
Customer assigment to PL: u variables:
3 9
4 9
5 9
7 14
8 14
Node is served by regular vehicle: g variables:
1
2
6
9
14
Customer assigment to Home delivery: gm variables:
1
2
6
Node total demands: ntd variables:
1 13 1
2 12 1
6 24 1
7 0 0
8 0 0
15 0 0
9 31 1
10 0 0
11 0 0
12 0 0
13 0 0
14 14 1
Customer's demand delivered to PL: l variables:
3
4
5
7
8
Lockers load <= capacity:
0 <= 93
31 <= 86
0 <= 90
0 <= 89
0 <= 76
0 <= 78
14 <= 96
